
nNurses = 125;
hours = 47;
demand = [9 19 27 6 20 16 19 20 12 0 11 16 19 29 20 20 10 24 4 27 15 14 21 17 31 3 1 18 7 7 31 16 9 11 7 7 4 30 23 11 3 30 27 2 27 17 30];
minHours = 11;
maxHours = 19;
maxConsec = 2;
maxPresence = 27;